Data path: /scratch/opt/lxu/CFLG/benchmarks/random_A
Instance: r_10_0.4_13.txt
Result path: /scratch/opt/lxu/CFLG/results/random_A
Solver: Gurobi
Time limit: 3600
Formulation: LEFPD
Cover: Small
julia --project=. src/main.jl /scratch/opt/lxu/CFLG/benchmarks/random_A r_10_0.4_13.txt /scratch/opt/lxu/CFLG/results/random_A Gurobi 3600 LEFPD Small
The latest version of Julia in the `release` channel is 1.11.5+0.x64.linux.gnu. You currently have `1.11.4+0.x64.linux.gnu` installed. Run:

  juliaup update

in your terminal shell to install Julia 1.11.5+0.x64.linux.gnu and update the `release` channel to that version.
/scratch/opt/lxu/CFLG/benchmarks/random_A Gurobi 3600.0 /scratch/opt/lxu/CFLG/results/random_A r_10_0.4_13.txt LEFPD Small
/scratch/opt/lxu/CFLG/benchmarks/random_A/r_10_0.4_13.txt

 read graph
data loaded


after absorb:7 10

max_piece:8
problem_graph/original graph: node: 7/10 edge: 10/13 dlt: 0.1228897293128583 break_avg_len: 0.6390265924268632 break_max_len: 0.9618411558093726elapsed CPU time: 0.044792 seconds
Set parameter TokenServer to value "solice01.zib.de"
Set parameter Threads to value 1
Set parameter OutputFlag to value 1
Set parameter MIPGap to value 0.0001
Set parameter MIPGapAbs to value 1
Set parameter TimeLimit to value 3599.955208

 more cuts:false
formulation:LEFPD10 0 0

 model loaded

Gurobi Optimizer version 12.0.1 build v12.0.1rc0 (linux64 - "Debian GNU/Linux 12 (bookworm)")

CPU model: Intel(R) Xeon(R) Gold 5122 CPU @ 3.60GHz, instruction set [SSE2|AVX|AVX2|AVX512]
Thread count: 8 physical cores, 16 logical processors, using up to 1 threads

Non-default parameters:
TimeLimit  3599.955208
MIPGapAbs  1
Threads  1

Optimize a model with 271 rows, 154 columns and 612 nonzeros
Model fingerprint: 0x73d9521c
Variable types: 57 continuous, 97 integer (97 binary)
Coefficient statistics:
  Matrix range     [1e-01, 1e+00]
  Objective range  [1e+00, 1e+00]
  Bounds range     [1e-01, 1e+00]
  RHS range        [9e-03, 1e+00]
Found heuristic solution: objective 31.0000000
Presolve removed 199 rows and 87 columns
Presolve time: 0.02s
Presolved: 72 rows, 67 columns, 233 nonzeros
Variable types: 38 continuous, 29 integer (29 binary)

Root relaxation: objective 2.285748e+01, 63 iterations, 0.00 seconds (0.00 work units)

    Nodes    |    Current Node    |     Objective Bounds      |     Work
 Expl Unexpl |  Obj  Depth IntInf | Incumbent    BestBd   Gap | It/Node Time

     0     0   22.85748    0   18   31.00000   22.85748  26.3%     -    0s
H    0     0                      27.0000000   22.85748  15.3%     -    0s
     0     0   24.20086    0   24   27.00000   24.20086  10.4%     -    0s
     0     0   24.26698    0   22   27.00000   24.26698  10.1%     -    0s
     0     0   24.42288    0   24   27.00000   24.42288  9.54%     -    0s
     0     0   24.45238    0   25   27.00000   24.45238  9.44%     -    0s
     0     0   24.45330    0   25   27.00000   24.45330  9.43%     -    0s
     0     0   24.45799    0   25   27.00000   24.45799  9.41%     -    0s
     0     0   24.49810    0   24   27.00000   24.49810  9.27%     -    0s
     0     0   24.50112    0   24   27.00000   24.50112  9.26%     -    0s
     0     0   24.50112    0   24   27.00000   24.50112  9.26%     -    0s
     0     0   24.50112    0   24   27.00000   24.50112  9.26%     -    0s
     0     0   24.50323    0   25   27.00000   24.50323  9.25%     -    0s
     0     2   24.50530    0   25   27.00000   24.50530  9.24%     -    0s
H    3     3                      26.0000000   24.50706  5.74%   5.3    0s

Cutting planes:
  Gomory: 5
  Cover: 5
  Implied bound: 6
  Clique: 1
  MIR: 12
  Flow cover: 5
  GUB cover: 1
  RLT: 1

Explored 10 nodes (408 simplex iterations) in 0.13 seconds (0.02 work units)
Thread count was 1 (of 16 available processors)

Solution count 3: 26 27 31 

Optimal solution found (tolerance 1.00e-04)
Best objective 2.600000000000e+01, best bound 2.600000000000e+01, gap 0.0000%

User-callback calls 1172, time in user-callback 0.01 sec

 sepatime0
26.0Stat(MathOptInterface.OPTIMAL, 26.0, 26.0, 0.0, 0.0, 0.044792, 0.1284642219543457, 10, Main.CFLG.LEFPD, "", #undef)
